Linux optc-02-12 4.15.0-58-generic #64-Ubuntu SMP Tue Aug 6 11:12:41 UTC 2019 x86_64 x86_64 x86_64 GNU/Linux

top - 03:05:43 up 1 day, 17:06,  0 users,  load average: 1,20, 0,99, 0,99
Tasks: 292 gesamt,   1 laufend, 149 schlafend,   0 gestoppt,   0 Zombie
%CPU(s):  6,0 be,  0,2 sy,  0,0 ni, 93,8 un,  0,0 wa,  0,0 hi,  0,0 si,  0,0 st
KiB Spch : 97514992 gesamt, 95453632 frei,   652172 belegt,  1409192 Puff/Cache
KiB Swap:  8388604 gesamt,  8388604 frei,        0 belegt. 96120544 verfü Spch 

  PID USER      PR  NI    VIRT    RES    SHR S  %CPU %MEM     ZEIT+ BEFEHL
    1 root      20   0  233868   9404   6664 S   0,0  0,0   0:12.98 systemd
    2 root      20   0       0      0      0 S   0,0  0,0   0:00.15 kthreadd
    3 root      20   0       0      0      0 I   0,0  0,0   0:02.35 kworker/0:0
    4 root       0 -20       0      0      0 I   0,0  0,0   0:00.00 kworker/0:+
    6 root      20   0       0      0      0 I   0,0  0,0   0:00.00 kworker/u3+
    7 root       0 -20       0      0      0 I   0,0  0,0   0:00.00 mm_percpu_+
    8 root      20   0       0      0      0 S   0,0  0,0   0:00.00 ksoftirqd/0
    9 root      20   0       0      0      0 I   0,0  0,0   0:15.93 rcu_sched

hard time limit: 04:10:00
hard mem limit: 55100

SLURM jobID: 2182878

@01 /nfs/optimi/kombadon/IP/coral/neos-983171.mps.gz ===========
-----------------------------
Fr 23. Aug 03:05:43 CEST 2019
-----------------------------
@03 1566522343
@05 7200
SCIP version 6.0.0 [precision: 8 byte] [memory: block] [mode: optimized] [LP solver: CPLEX 12.8.0.0] [GitHash: 41ab6e0014]
Copyright (C) 2002-2018 Konrad-Zuse-Zentrum fuer Informationstechnik Berlin (ZIB)

External codes: 
  Readline 7.0         GNU library for command line editing (gnu.org/s/readline)
  CPLEX 12.8.0.0       Linear Programming Solver developed by IBM (www.cplex.com)
  CppAD 20180000.0     Algorithmic Differentiation of C++ algorithms developed by B. Bell (www.coin-or.org/CppAD)
  ZLIB 1.2.11          General purpose compression library by J. Gailly and M. Adler (zlib.net)
  GMP 6.1.2            GNU Multiple Precision Arithmetic Library developed by T. Granlund (gmplib.org)
  bliss 0.73p          Computing Graph Automorphism Groups by T. Junttila and P. Kaski (http://www.tcs.hut.fi/Software/bliss/)

user parameter file <scip.set> not found - using default parameters

SCIP> 
SCIP> set load /home/optimi/bzfhende/opti/scip-opti/check/../settings/enable_treeeprofile.set
loaded parameter file </home/optimi/bzfhende/opti/scip-opti/check/../settings/enable_treeprofile.set>
SCIP> set misc referencevalue 2369
misc/referencevalue = 2369
SCIP> set limits time 7200
limits/time = 7200
SCIP> set limits nodes 2100000000
limits/nodes = 2100000000
SCIP> set limits memory 50000
limits/memory = 50000
SCIP> set lp advanced threads 1
lp/threads = 1
SCIP> set timing clocktype 1
timing/clocktype = 1
SCIP> set display freq 10000
display/freq = 10000
SCIP> set memory savefac 1.0
memory/savefac = 1
SCIP> set save /home/optimi/bzfhende/opti/scip-opti/check/treesize.estimation.jouurnal.3/bzfhende.MMMc.414_neos-983171.scip.M640.enable_treeprofile.set
saved parameter file </home/optimi/bzfhende/opti/scip-opti/check/treesize.estimation.journal.3/bzfhende.MMMc.414_neos-983171.scip.M640.enable_treeprofile.set>
SCIP> read /nfs/optimi/kombadon/IP/coral/neos-983171.mps.gz

read problem </nfs/optimi/kombadon/IP/coral/neos-983171.mps.gz>
============

Warning line 6715: row "R6713" for objective function "N" ignored
original problem has 8965 variables (6557 bin, 0 int, 0 impl, 2408 cont) and 6711 constraints
SCIP> display parameters

number of parameters = 2448
non-default parameter settings:
display/freq = 10000
limits/time = 7200
limits/nodes = 2100000000
limits/memory = 50000
lp/threads = 1
memory/savefac = 1
misc/referencevalue = 2369
presolving/maxrestarts = 0
estimates/profile/enabled = TRUE
estimates/profile/maxdepthfactor = 10
estimates/profile/freq = 0

SCIP> optimize

Activating tree profile data collection
presolving:
(round 1, fast)       1696 del vars, 8 del conss, 0 add conss, 158 chg bounds, 0 chg sides, 0 chg coeffs, 0 upgd conss, 0 impls, 5712 clqs
(round 2, fast)       1696 del vars, 8 del conss, 0 add conss, 158 chg bounds, 158 chg sides, 0 chg coeffs, 0 upgd conss, 0 impls, 5712 clqs
(round 3, fast)       1696 del vars, 8 del conss, 0 add conss, 870 chg bounds, 158 chg sides, 0 chg coeffs, 0 upgd conss, 0 impls, 5712 clqs
(round 4, fast)       1708 del vars, 8 del conss, 0 add conss, 870 chg bounds, 158 chg sides, 0 chg coeffs, 0 upgd conss, 0 impls, 5712 clqs
(round 5, exhaustive) 1708 del vars, 42 del conss, 0 add conss, 870 chg bounds, 158 chg sides, 0 chg coeffs, 0 upgd conss, 0 impls, 5712 clqs
(round 6, exhaustive) 1708 del vars, 42 del conss, 0 add conss, 870 chg bounds, 158 chg sides, 0 chg coeffs, 5924 upgd conss, 0 impls, 5712 clqs
(round 7, exhaustive) 1708 del vars, 71 del conss, 0 add conss, 870 chg bounds, 187 chg sides, 0 chg coeffs, 5924 upgd conss, 0 impls, 5712 clqs
(round 8, fast)       1738 del vars, 72 del conss, 0 add conss, 870 chg bounds, 187 chg sides, 0 chg coeffs, 5924 upgd conss, 0 impls, 5712 clqs
(round 9, exhaustive) 1738 del vars, 78 del conss, 0 add conss, 870 chg bounds, 187 chg sides, 0 chg coeffs, 5924 upgd conss, 0 impls, 5712 clqs
(round 10, exhaustive) 1777 del vars, 78 del conss, 0 add conss, 870 chg bounds, 187 chg sides, 0 chg coeffs, 5924 upgd conss, 0 impls, 5712 clqs
   (0.8s) probing: 1000/6557 (15.3%) - 0 fixings, 0 aggregations, 17071 implications, 0 bound changes
   (0.8s) probing: 1001/6557 (15.3%) - 0 fixings, 0 aggregations, 17092 implications, 0 bound changes
   (0.8s) probing aborted: 1000/1000 successive useless probings
presolving (11 rounds: 11 fast, 6 medium, 6 exhaustive):
 1777 deleted vars, 79 deleted constraints, 0 added constraints, 870 tightened bounds, 0 added holes, 187 changed sides, 0 changed coefficients
 0 implications, 22804 cliques
presolved problem has 7188 variables (6557 bin, 0 int, 465 impl, 166 cont) and 6632 constraints
    212 constraints of type <knapsack>
   5706 constraints of type <setppc>
    714 constraints of type <linear>
Presolving Time: 0.73

 time | node  | left  |LP iter|LP it/n| mem |mdpt |frac |vars |cons |cols |rows |cuts |confs|strbr|  dualbound   | primalbound  |  gap   
t 0.8s|     1 |     0 |     0 |     - |  52M|   0 |   - |7188 |6632 |   0 |   0 |   0 |   0 |   0 |-4.515710e+05 | 5.260200e+04 |    Inf 
Q 0.8s|     1 |     0 |     0 |     - |  61M|   0 |   - |7188 |6632 |7188 |6632 |   0 |   0 |   0 |-4.515710e+05 | 9.406000e+03 |    Inf 
V 0.9s|     1 |     0 |   303 |     - |  64M|   0 |   - |7188 |6632 |7188 |6632 |   0 |   0 |   0 |-4.515710e+05 | 9.272000e+03 |    Inf 
  7.0s|     1 |     0 | 20705 |     - |  67M|   0 |1618 |7188 |6646 |7188 |6632 |   0 |  14 |   0 | 2.358500e+03 | 9.272000e+03 | 293.13%
 10.7s|     1 |     0 | 28442 |     - |  70M|   0 |1423 |7188 |6647 |7188 |6650 |  18 |  15 |   0 | 2.358500e+03 | 9.272000e+03 | 293.13%
 13.8s|     1 |     0 | 35230 |     - |  71M|   0 |1272 |7188 |6648 |7188 |6671 |  39 |  16 |   0 | 2.358500e+03 | 9.272000e+03 | 293.13%
 16.8s|     1 |     0 | 42021 |     - |  72M|   0 |1297 |7188 |6649 |7188 |6690 |  58 |  17 |   0 | 2.358500e+03 | 9.272000e+03 | 293.13%
 19.9s|     1 |     0 | 48964 |     - |  73M|   0 |1293 |7188 |6650 |7188 |6704 |  72 |  18 |   0 | 2.358500e+03 | 9.272000e+03 | 293.13%
 22.9s|     1 |     0 | 55674 |     - |  74M|   0 |1332 |7188 |6650 |7188 |6716 |  84 |  18 |   0 | 2.358500e+03 | 9.272000e+03 | 293.13%
 26.1s|     1 |     0 | 62853 |     - |  74M|   0 |1280 |7188 |6650 |7188 |6725 |  93 |  18 |   0 | 2.358500e+03 | 9.272000e+03 | 293.13%
 29.4s|     1 |     0 | 70362 |     - |  75M|   0 |1450 |7188 |6650 |7188 |6748 | 116 |  18 |   0 | 2.358500e+03 | 9.272000e+03 | 293.13%
 32.4s|     1 |     0 | 76889 |     - |  76M|   0 |1254 |7188 |6651 |7188 |6763 | 131 |  19 |   0 | 2.359000e+03 | 9.272000e+03 | 293.05%
 35.4s|     1 |     0 | 83631 |     - |  77M|   0 |1226 |7188 |6652 |7188 |6777 | 145 |  20 |   0 | 2.359500e+03 | 9.272000e+03 | 292.96%
 38.5s|     1 |     0 | 90405 |     - |  78M|   0 |1297 |7188 |6653 |7188 |6789 | 157 |  21 |   0 | 2.359500e+03 | 9.272000e+03 | 292.96%
 41.1s|     1 |     0 | 96422 |     - |  79M|   0 | 708 |7188 |6654 |7188 |6805 | 173 |  22 |   0 | 2.359500e+03 | 9.272000e+03 | 292.96%
 time | node  | left  |LP iter|LP it/n| mem |mdpt |frac |vars |cons |cols |rows |cuts |confs|strbr|  dualbound   | primalbound  |  gap   
 43.6s|     1 |     0 |102170 |     - |  80M|   0 |1143 |7188 |6654 |7188 |6818 | 186 |  22 |   0 | 2.359500e+03 | 9.272000e+03 | 292.96%
F74.9s|     1 |     0 |180148 |     - |  81M|   0 |   0 |7188 |6655 |7188 |6818 | 186 |  23 |   0 | 2.359500e+03 | 5.013000e+03 | 112.46%
E82.2s|     1 |     0 |180148 |     - |  81M|   0 |1143 |7188 |6655 |7188 |6818 | 186 |  23 |   0 | 2.359500e+03 | 2.616000e+03 |  10.87%
 82.4s|     1 |     0 |180148 |     - |  81M|   0 |1143 |7188 |6655 |7188 |6818 | 186 |  23 |   0 | 2.359500e+03 | 2.616000e+03 |  10.87%
 84.7s|     1 |     0 |185317 |     - |  82M|   0 |1133 |7188 |6655 |7188 |6826 | 194 |  23 |   0 | 2.359500e+03 | 2.616000e+03 |  10.87%
SCIP nodes: 1 Estimation: -1
 92.0s|     1 |     2 |185317 |     - |  82M|   0 |1133 |7188 |6655 |7188 |6826 | 194 |  23 |  20 | 2.359500e+03 | 2.616000e+03 |  10.87%
   (92.7s) symmetry computation started: requiring (bin +, int -, cont -), (fixed: bin -, int +, cont -)
   (92.7s) symmetry computation finished: 22 generators found (max: 1500, log10 of symmetry group size: 6.8)
   (92.7s) turning off presolver <domcol> for remaining computations in order to avoid conflicts
SCIP nodes: 2 Estimation: -1
SCIP nodes: 4 Estimation: -1
SCIP nodes: 8 Estimation: -1
SCIP nodes: 16 Estimation: -1
p 733s|    28 |    29 |302032 |7225.9 | 115M|  17 |   - |7188 |6655 |7188 |6696 |   0 |  23 | 251 | 2.359500e+03 | 2.524000e+03 |   6.97%
SCIP nodes: 32 Estimation: -1
SCIP nodes: 64 Estimation: -1
SCIP nodes: 128 Estimation: -1
SCIP nodes: 256 Estimation: -1
SCIP nodes: 512 Estimation: -1
SCIP nodes: 1024 Estimation: -1
p2454s|  1266 |  1259 |  3951k|3039.6 | 221M| 109 |   - |7188 |7510 |7188 |6739 |   0 |1332 |1461 | 2.359500e+03 | 2.484000e+03 |   5.28%
p3119s|  1598 |  1591 |  4978k|3050.5 | 230M| 109 |   - |7188 |7630 |7188 |6729 |   0 |1803 |1810 | 2.359500e+03 | 2.391000e+03 |   1.34%
SCIP nodes: 2048 Estimation: 1.37346e+15
*4208s|  2443 |  2167 |  7128k|2875.4 | 242M| 109 |   - |7188 |7964 |7188 |6714 |2421 |2652 |2630 | 2.359500e+03 | 2.363000e+03 |   0.15%
SCIP nodes: 4096 Estimation: 4.3448e+14

SCIP Status        : solving was interrupted [time limit reached]
Solving Time (sec) : 7200.00
Solving Nodes      : 5613
Primal Bound       : +2.36300000000001e+03 (643 solutions)
Dual Bound         : +2.35950000000002e+03
Gap                : 0.15 %

SCIP> display statistics

SCIP Status        : solving was interrupted [time limit reached]
Total Time         :    7200.02
  solving          :    7200.00
  presolving       :       0.73 (included in solving)
  reading          :       0.02
  copying          :       0.57 (24 #copies) (minimal 0.01, maximal 0.04, average 0.02)
Original Problem   :
  Problem name     : file
  Variables        : 8965 (6557 binary, 0 integer, 0 implicit integer, 2408 continuous)
  Constraints      : 6711 initial, 6711 maximal
  Objective        : minimize, 8965 non-zeros (abs.min = 1, abs.max = 500)
Presolved Problem  :
  Problem name     : t_file
  Variables        : 7188 (6557 binary, 0 integer, 465 implicit integer, 166 continuous)
  Constraints      : 6632 initial, 10454 maximal
  Objective        : minimize, 7188 non-zeros (abs.min = 1, abs.max = 490)
Presolvers         :   ExecTime  SetupTime  Calls  FixedVars   AggrVars   ChgTypes  ChgBounds   AddHoles    DelCons    AddCons   ChgSides   ChgCoefs
  boundshift       :       0.00       0.00      0          0          0          0          0          0          0          0          0          0
  convertinttobin  :       0.00       0.00      0          0          0          0          0          0          0          0          0          0
  domcol           :       0.01       0.00      2         39          0          0          0          0          0          0          0          0
  dualagg          :       0.00       0.00      0          0          0          0          0          0          0          0          0          0
  dualcomp         :       0.00       0.00      2          0          0          0          0          0          0          0          0          0
  dualinfer        :       0.00       0.00      0          0          0          0          0          0          0          0          0          0
  gateextraction   :       0.00       0.00      0          0          0          0          0          0          0          0          0          0
  implics          :       0.00       0.00      6          0          0          0          0          0          0          0          0          0
  inttobinary      :       0.00       0.00      0          0          0          0          0          0          0          0          0          0
  qpkktref         :       0.00       0.00      0          0          0          0          0          0          0          0          0          0
  redvub           :       0.00       0.00      0          0          0          0          0          0          0          0          0          0
  sparsify         :       0.00       0.00      1          0          0          0          0          0          0          0          0          0
  stuffing         :       0.00       0.00      0          0          0          0          0          0          0          0          0          0
  symbreak         :       0.00       0.00      0          0          0          0          0          0          0          0          0          0
  symmetry         :       0.00       0.00      0          0          0          0          0          0          0          0          0          0
  trivial          :       0.00       0.00     11          0          0          0          0          0          0          0          0          0
  tworowbnd        :       0.00       0.00      0          0          0          0          0          0          0          0          0          0
  dualfix          :       0.00       0.00     11       1559          0          0          0          0          0          0          0          0
  genvbounds       :       0.00       0.00      0          0          0          0          0          0          0          0          0          0
  orbitalfixing    :       0.00       0.00      0          0          0          0          0          0          0          0          0          0
  probing          :       0.62       0.00      1          0          0          0          0          0          0          0          0          0
  pseudoobj        :       0.00       0.00      0          0          0          0          0          0          0          0          0          0
  vbounds          :       0.00       0.00      1          0          0          0          0          0          0          0          0          0
  knapsack         :       0.00       0.00     13          0          0          0          0          0          0          0          0          0
  setppc           :       0.04       0.00     13          0          0          0          0          0          6          0          0          0
  linear           :       0.06       0.00     16         12        167          0        870          0         73          0        187          0
  logicor          :       0.00       0.00      0          0          0          0          0          0          0          0          0          0
  bounddisjunction :       0.00       0.00      0          0          0          0          0          0          0          0          0          0
  benders          :       0.00       0.00      0          0          0          0          0          0          0          0          0          0
  components       :       0.00       0.00      1          0          0          0          0          0          0          0          0          0
  root node        :          -          -      -        160          -          -        735          -          -          -          -          -
Constraints        :     Number  MaxNumber  #Separate #Propagate    #EnfoLP    #EnfoRelax  #EnfoPS    #Check   #ResProp    Cutoffs    DomReds       Cuts    Applied      Conss   Children
  benderslp        :          0          0          0          0       5641          0          0       1301          0          0          0          0          0          0          0
  integral         :          0          0          0          0       5641          0          0       1301          0          1         98          0          0        128      11116
  knapsack         :        212        212         13     300657          0          0          0       1022      35799        152      19629          0          0          0          0
  setppc           :       5706+      5980         13     300458          0          0          0        644     374929         12     169487          2          1          0          0
  linear           :        714+       718         13     300462          0          0          0        643        492          8         48          0          0          0          0
  logicor          :          0+      2285         13       8851          0          0          0          0         85        126         87          0          0          0          0
  bounddisjunction :          0+      1267          0       2350          0          0          0          0          5         36          1          0          0          0          0
  benders          :          0          0          0          0          0          0          0        644          0          0          0          0          0          0          0
  countsols        :          0          0          0          0          0          0          0        644          0          0          0          0          0          0          0
  components       :          0          0          0          0          0          0          0          0          0          0          0          0          0          0          0
Constraint Timings :  TotalTime  SetupTime   Separate  Propagate     EnfoLP     EnfoPS     EnfoRelax   Check    ResProp    SB-Prop
  benderslp        :       0.00       0.00       0.00       0.00       0.00       0.00       0.00       0.00       0.00       0.00
  integral         :    1611.04       0.00       0.00       0.00    1610.79       0.00       0.00       0.25       0.00       0.00
  knapsack         :       0.60       0.00       0.01       0.47       0.00       0.00       0.00       0.03       0.04       0.05
  setppc           :       1.78       0.00       0.00       1.18       0.00       0.00       0.00       0.05       0.26       0.29
  linear           :       0.30       0.00       0.00       0.25       0.00       0.00       0.00       0.00       0.01       0.04
  logicor          :       0.10       0.00       0.00       0.08       0.00       0.00       0.00       0.00       0.00       0.02
  bounddisjunction :       0.03       0.00       0.00       0.03       0.00       0.00       0.00       0.00       0.00       0.00
  benders          :       0.00       0.00       0.00       0.00       0.00       0.00       0.00       0.00       0.00       0.00
  countsols        :       0.00       0.00       0.00       0.00       0.00       0.00       0.00       0.00       0.00       0.00
  components       :       0.16       0.00       0.00       0.14       0.00       0.00       0.00       0.00       0.00       0.02
Propagators        : #Propagate   #ResProp    Cutoffs    DomReds
  dualfix          :          3          0          0          0
  genvbounds       :          0          0          0          0
  nlobbt           :          0          0          0          0
  obbt             :          0          0          0          0
  orbitalfixing    :       6321          0          0       1382
  probing          :          0          0          0          0
  pseudoobj        :      23885          0          0          0
  redcost          :      14537          0          0      17766
  rootredcost      :          5          0          0        734
  vbounds          :     303339          0          0          0
Propagator Timings :  TotalTime  SetupTime   Presolve  Propagate    ResProp    SB-Prop
  dualfix          :       0.01       0.00       0.00       0.01       0.00       0.00
  genvbounds       :       0.14       0.00       0.00       0.13       0.00       0.01
  nlobbt           :       0.00       0.00       0.00       0.00       0.00       0.00
  obbt             :       0.00       0.00       0.00       0.00       0.00       0.00
  orbitalfixing    :       2.02       0.00       0.00       2.00       0.00       0.02
  probing          :       0.62       0.00       0.62       0.00       0.00       0.00
  pseudoobj        :       0.40       0.00       0.00       0.39       0.00       0.01
  redcost          :      15.79       0.00       0.00      15.77       0.00       0.02
  rootredcost      :       0.19       0.00       0.00       0.17       0.00       0.02
  vbounds          :       0.25       0.00       0.00       0.24       0.00       0.01
Orbital fixing     :
  vars fixed to 0  :       1381
  vars fixed to 1  :          1
Conflict Analysis  :       Time      Calls    Success    DomReds  Conflicts   Literals    Reconvs ReconvLits   Dualrays   Nonzeros   LP Iters   (pool size: [10000,10000])
  propagation      :       0.00        320        314          -        389       54.4         40        2.3          -          -          -
  infeasible LP    :       0.00          0          0          -          0        0.0          0        0.0          0        0.0          0
  bound exceed. LP :       9.27        638        553          -      37295      719.7        246        2.5         10     1036.9       6020
  strong branching :       0.00          0          0          -          0        0.0          0        0.0          -          -          0
  pseudo solution  :       0.00          0          0          -          0        0.0          0        0.0          -          -          -
  applied globally :       0.14          -          -          0       5828      165.0          -          -         10          -          -
  applied locally  :          -          -          -          0          0        0.0          -          -          0          -          -
Separators         :   ExecTime  SetupTime      Calls    Cutoffs    DomReds       Cuts    Applied      Conss
  cut pool         :       0.10                  1342          -          -       3378          -          -    (maximal pool size: 705)
  aggregation      :       0.31       0.00        160          0          0          0          0          0
  cgmip            :       0.00       0.00          0          0          0          0          0          0
  clique           :       1.31       0.00         13          0          0          0         12          0
  closecuts        :       0.00       0.00          0          0          0          0          0          0
  cmir             :       0.00       0.00          0          0          0          0          0          0
  convexproj       :       0.00       0.00          0          0          0          0          0          0
  disjunctive      :       0.00       0.00          0          0          0          0          0          0
  eccuts           :       0.00       0.00          0          0          0          0          0          0
  flowcover        :       0.00       0.00          0          0          0          0          0          0
  gauge            :       0.00       0.00          0          0          0          0          0          0
  gomory           :       9.27       0.00        154          0          0         39        986          0
  impliedbounds    :       0.11       0.00        160          0          1          0         25          0
  intobj           :       0.00       0.00          0          0          0          0          0          0
  mcf              :       0.00       0.00          1          0          0          0          0          0
  oddcycle         :       0.00       0.00          0          0          0          0          0          0
  rapidlearning    :       0.00       0.00          0          0          0          0          0          0
  strongcg         :       6.04       0.00        120          0          0         18         13          0
  zerohalf         :       2.36       0.00        157          0          0        645       1993          0
Pricers            :   ExecTime  SetupTime      Calls       Vars
  problem variables:       0.00          -          0          0
Branching Rules    :   ExecTime  SetupTime   BranchLP  BranchExt   BranchPS    Cutoffs    DomReds       Cuts      Conss   Children
  allfullstrong    :       0.00       0.00          0          0          0          0          0          0          0          0
  cloud            :       0.00       0.00          0          0          0          0          0          0          0          0
  distribution     :       0.00       0.00          0          0          0          0          0          0          0          0
  fullstrong       :       0.00       0.00          0          0          0          0          0          0          0          0
  inference        :       0.00       0.00          0          0          0          0          0          0          0          0
  leastinf         :       0.00       0.00          0          0          0          0          0          0          0          0
  lookahead        :       0.00       0.00          0          0          0          0          0          0          0          0
  mostinf          :       0.00       0.00          0          0          0          0          0          0          0          0
  multaggr         :       0.00       0.00          0          0          0          0          0          0          0          0
  nodereopt        :       0.00       0.00          0          0          0          0          0          0          0          0
  pscost           :       0.00       0.00          0          0          0          0          0          0          0          0
  random           :       0.00       0.00          0          0          0          0          0          0          0          0
  relpscost        :    1610.77       0.00       5641          0          0          1         98          0        133      11116
Primal Heuristics  :   ExecTime  SetupTime      Calls      Found       Best
  LP solutions     :       0.00          -          -          0          0
  relax solutions  :       0.00          -          -          0          0
  pseudo solutions :       0.00          -          -          0          0
  strong branching :       0.10          -          -          1          1
  actconsdiving    :       0.00       0.00          0          0          0
  alns             :       4.27       0.00          5          0          0
  bound            :       0.00       0.00          0          0          0
  clique           :       0.05       0.00          1          1          1
  coefdiving       :      55.42       0.00         62          0          0
  completesol      :       0.00       0.00          0          0          0
  conflictdiving   :       0.00       0.00          0          0          0
  crossover        :       1.12       0.00          9          3          0
  dins             :       0.00       0.00          0          0          0
  distributiondivin:     133.59       0.00         62          0          0
  dualval          :       0.00       0.00          0          0          0
  farkasdiving     :      27.49       0.00          1          0          0
  feaspump         :       3.76       0.00          1          1          1
  fixandinfer      :       0.00       0.00          0          0          0
  fracdiving       :      34.52       0.00         62          0          0
  gins             :       0.20       0.00          3          3          0
  guideddiving     :      64.03       0.00         62          0          0
  indicator        :       0.01       0.00          0          0          0
  intdiving        :       0.00       0.00          0          0          0
  intshifting      :       0.19       0.00         24          0          0
  linesearchdiving :      61.98       0.00         62          0          0
  localbranching   :       0.00       0.00          0          0          0
  locks            :       0.09       0.00          1          0          0
  lpface           :    1076.24       0.00          4          0          0
  mpec             :       0.00       0.00          0          0          0
  multistart       :       0.00       0.00          0          0          0
  mutation         :       0.00       0.00          0          0          0
  nlpdiving        :       0.00       0.00          0          0          0
  objpscostdiving  :     100.75       0.00          8          0          0
  octane           :       0.00       0.00          0          0          0
  ofins            :       0.00       0.00          0          0          0
  oneopt           :       0.02       0.00          6          0          0
  proximity        :       0.00       0.00          0          0          0
  pscostdiving     :     338.24       0.00         63          5          3
  randrounding     :       0.15       0.00        681          0          0
  rens             :       7.33       0.00          1          1          1
  reoptsols        :       0.00       0.00          0          0          0
  repair           :       0.00       0.00          0          0          0
  rins             :       9.60       0.00          6          6          0
  rootsoldiving    :     135.54       0.00         32         18          0
  rounding         :       6.14       0.00       1070          0          0
  shiftandpropagate:       0.00       0.00          0          0          0
  shifting         :       2.90       0.00        432          0          0
  simplerounding   :       0.31       0.00       6282          0          0
  subnlp           :       0.01       0.00          0          0          0
  trivial          :       0.00       0.00          2          2          1
  trivialnegation  :       0.00       0.00          0          0          0
  trysol           :       0.01       0.00          0          0          0
  twoopt           :       0.00       0.00          0          0          0
  undercover       :       0.00       0.00          0          0          0
  vbounds          :       0.23       0.00          1          1          1
  veclendiving     :      71.06       0.00         62          0          0
  zeroobj          :       0.00       0.00          0          0          0
  zirounding       :       2.57       0.00       5558        601          0
  other solutions  :          -          -          -          0          -
Diving Statistics  :      Calls      Nodes   LP Iters Backtracks  Conflicts   MinDepth   MaxDepth   AvgDepth  RoundSols  NLeafSols  MinSolDpt  MaxSolDpt  AvgSolDpt
  actconsdiving    :          0          -          -          -          -          -          -          -          -          -          -          -          -
  coefdiving       :         62      33505     168209         43       3730        130       1431      611.3          0          -          -          -          -
  conflictdiving   :          0          -          -          -          -          -          -          -          -          -          -          -          -
  distributiondivin:         62       7307     447563         65       2737         55        525      188.1          0          -          -          -          -
  farkasdiving     :          1         26      67959          0          0         27         27       27.0          0          -          -          -          -
  fracdiving       :         62      30103     104293         34       3137         91       1472      559.0          0          -          -          -          -
  guideddiving     :         62      23208     208409         57       5736        110       1436      441.6          0          -          -          -          -
  linesearchdiving :         62      14168     192683        143       7920         53        979      293.9          0          -          -          -          -
  pscostdiving     :         63      30442    1150882         47       7512        119       1091      552.3          2          3        328       1007      663.7
  veclendiving     :         62      24267     235473        118       6726         63       1752      461.0          0          -          -          -          -
Neighborhoods      :      Calls  SetupTime  SolveTime SolveNodes       Sols       Best       Exp3  EpsGreedy        UCB TgtFixRate  Opt  Inf Node Stal  Sol  Usr Othr Actv
  rens             :          0       0.00       0.00          0          0          0    0.00000   -1.00000    1.00000      0.900    0    0    0    0    0    0    0    1
  rins             :          1       0.02       3.95        100          0          0    0.00000   -1.00000    1.00000      0.900    0    0    0    1    0    0    0    1
  mutation         :          1       0.03       0.02          0          0          0    0.00000   -1.00000    1.00000      0.700    0    1    0    0    0    0    0    1
  localbranching   :          1       0.03       0.02          1          0          0    0.00000   -1.00000    1.00000      0.700    0    1    0    0    0    0    0    1
  crossover        :          1       0.05       0.05          1          0          0    0.00000   -1.00000    1.00000      0.700    0    1    0    0    0    0    0    1
  proximity        :          0       0.00       0.00          0          0          0    0.00000   -1.00000    1.00000      0.900    0    0    0    0    0    0    0    1
  zeroobjective    :          0       0.00       0.00          0          0          0    0.00000   -1.00000    1.00000      0.900    0    0    0    0    0    0    0    1
  dins             :          1       0.04       0.02          1          0          0    0.00000   -1.00000    1.00000      0.700    0    1    0    0    0    0    0    1
LP                 :       Time      Calls Iterations  Iter/call   Iter/sec  Time-0-It Calls-0-It    ItLimit
  primal LP        :     238.56        412          0       0.00       0.00     238.56        412
  dual LP          :    3165.34       8930    9159878    1448.66    2893.81       2.24       2607
  lex dual LP      :       0.00          0          0       0.00          -
  barrier LP       :       0.00          0          0       0.00          -       0.00          0
  resolve instable :       0.00          0          0       0.00          -
  diving/probing LP:     998.77       3038    3219302    1059.68    3223.27
  strong branching :    1601.65       5166    4698227     909.45    2933.37          -          -       8119
    (at root node) :          -         20      17937     896.85          -
  conflict analysis:       4.47        614       6020       9.80    1346.76
B&B Tree           :
  number of runs   :          1
  nodes            :       5613 (5558 internal, 55 leaves)
  feasible leaves  :          0
  infeas. leaves   :         12
  objective leaves :         42
  nodes (total)    :       5613 (5558 internal, 55 leaves)
  nodes left       :       5240
  max depth        :        112
  max depth (total):        112
  backtracks       :        483 (8.6%)
  early backtracks :        465 (96.3%)
  nodes exc. ref.  :         46 (0.8%)
  delayed cutoffs  :          0
  repropagations   :        712 (69 domain reductions, 0 cutoffs)
  avg switch length:       4.00
  switching time   :     239.48
Root Node          :
  First LP value   : +2.35850000000000e+03
  First LP Iters   :      20299 (3458.09 Iter/sec)
  First LP Time    :       5.87
  Final Dual Bound : +2.35950000000001e+03
  Final Root Iters :     106933
  Root LP Estimate : +2.39460938812351e+03
Solution           :
  Solutions found  :        643 (9 improvements)
  First Solution   : +5.26020000000000e+04   (in run 1, after 1 nodes, 0.78 seconds, depth 0, found by <trivial>)
  Gap First Sol.   :   infinite
  Gap Last Sol.    :       0.15 %
  Primal Bound     : +2.36300000000001e+03   (in run 1, after 2443 nodes, 4207.52 seconds, depth 59, found by <relaxation>)
  Dual Bound       : +2.35950000000002e+03
  Gap              :       0.15 %
  Avg. Gap         :       4.02 % (28960.08 primal-dual integral)
  Tree Data        : 11117 nodes (5877 visited, 5558 inner, 319 leaves, 5240 open), progress: 0.0000
Tree Estimation    :       estim       value       trend  resolution      smooth
  wbe              : 33005737066           -           -           -           -
  tree profile     : 1401341650416035           -           -           -           -
  gap              :       11754     0.99852     0.00000           1       11716
  progress         :       11754     0.00000     0.00000           1       11716
  leaf-frequency   :       11754     0.05425    -0.00014           1       11716
  ssg              :       11754     0.88013    -0.00000           1       11716
  open-nodes       :       11754  5234.00000    36.75307           1       11716


SCIP> checksol

check best solution
solution is feasible in original problem
Violation          :    absolute    relative
  bounds           : 1.60760e-13 1.60760e-13
  integrality      : 2.54019e-13           -
  LP rows          : 1.60760e-13 1.60760e-13
  constraints      : 1.60760e-13 1.60760e-13

SCIP> write sol /local/tmp/bzfhende-tmpdir/bzfhende.MMMc.414_neos-983171.scip.M6440.enable_treeprofile.sol

written solution information to file </local/tmp/bzfhende-tmpdir/bzfhende.MMMc.414_neos-983171.scip.M640.enable_treeprofile.sol>

SCIP> quit

Disabling tree profile data collection
Read MPS: 1
MIP has 8965 vars and 6711 constraints
Read SOL: 1
Objective value computed by solver: 2363.00000000001

Integrality tolerance: 1/10000
Linear tolerance: 1/10000
Objective tolerance: 1/10000

Check SOL: Integrality 1 Constraints 1 Objective 1
Maximum violations: Integrality 2.54e-13 Constraints 3.58e-13 Objective 2.2922e-11
@04 1566529547
-----------------------------
Fr 23. Aug 05:05:47 CEST 2019
-----------------------------

=ready=
